row=6;
Board=[|9,0,0,0,8,7,2,0,1,0|10,0,9,0,0,3,5,0,0,7|0,0,2,0,0,9,8,10,0,4|0,4,10,0,1,0,0,0,8,0|0,3,0,0,0,9,1,0,6,2|0,0,8,0,6,0,5,4,9,1|];
bottom=[81000,960,60480,1260,9216,83349,800,86400,4320,1680]